100
32
18
20
19
10
5
26
5
18
13
31
7
6
12
4
6
16
4
5
29
19
12
6
4
10
30
29
26
6
27
10
5
16
20
4
23
21
30
2
14
19
11
6
21
3
3
28
30
6
8
13
29
1
6
16
20
22
6
30
28
8
20
9
7
2
6
18
2
17
16
6
6
31
11
12
5
20
22
14
4
10
5
9
12
25
19
3
4
24
29
20
2
6
4
20
4
14
1
1
10
1